     Program PWSCF v.6.7MaX starts on 25Aug2023 at 22:57:44

     Waiting for input...
     Reading input from standard input

     Current dimensions of program PWSCF are:
     Max number of different atomic species (ntypx) = 10
     Max number of k-points (npk) =  40000
     Max angular momentum in pseudopotentials (lmaxx) =  3
     Message from routine read_pp_mesh:
     mesh size missing, using the one in header
     Message from routine read_pp_mesh:
     mesh size missing, using the one in header
     Message from routine read_pp_mesh:
     mesh size missing, using the one in header
     Message from routine read_pp_mesh:
     mesh size missing, using the one in header

     gamma-point specific algorithms are used

     Subspace diagonalization in iterative solution of the eigenvalue problem:
     a serial algorithm will be used

     Found symmetry operation: I + (  0.0000 -0.5000  0.5000)
     This is a supercell, fractional translations are disabled

     bravais-lattice index     =            8
     lattice parameter (alat)  =      19.8988  a.u.
     unit-cell volume          =    5118.8754 (a.u.)^3
     number of atoms/cell      =           64
     number of atomic types    =            4
     number of electrons       =       320.00
     number of Kohn-Sham states=          160
     kinetic-energy cutoff     =      25.0000  Ry
     charge density cutoff     =     225.0000  Ry
     scf convergence threshold =      1.0E-10
     mixing beta               =       0.7000
     number of iterations used =            8  plain     mixing
     Exchange-correlation= PBE
                           (   1   4   3   4   0   0   0)

     celldm(1)=  19.898816  celldm(2)=   0.991453  celldm(3)=   0.655271
     celldm(4)=   0.000000  celldm(5)=   0.000000  celldm(6)=   0.000000

     crystal axes: (cart. coord. in units of alat)
               a(1) = (   1.000000   0.000000   0.000000 )
               a(2) = (   0.000000   0.991453   0.000000 )
               a(3) = (   0.000000   0.000000   0.655271 )

     reciprocal axes: (cart. coord. in units 2 pi/alat)
               b(1) = (  1.000000  0.000000  0.000000 )
               b(2) = (  0.000000  1.008621  0.000000 )
               b(3) = (  0.000000  0.000000  1.526087 )

     PseudoPot. # 1 for K  read from file:
     /home/johnpaul/JP_QME/Dojo_Pseudo/nc-sr-05_pbe_stringent_upf/K.upf
     MD5 check sum: 0aa97b2c023445f040759afc9fdb6c80
     Pseudo is Norm-conserving + core correction, Zval =  9.0
     Generated using ONCVPSP code by D. R. Hamann
     Using radial grid of 2222 points,  6 beta functions with:
                l(1) =   0
                l(2) =   0
                l(3) =   1
                l(4) =   1
                l(5) =   2
                l(6) =   2

     PseudoPot. # 2 for P  read from file:
     /home/johnpaul/JP_QME/Dojo_Pseudo/nc-sr-05_pbe_stringent_upf/P.upf
     MD5 check sum: e25a93595ed76be8dfbf715c9c2e8dc8
     Pseudo is Norm-conserving + core correction, Zval =  5.0
     Generated using ONCVPSP code by D. R. Hamann
     Using radial grid of 1298 points,  6 beta functions with:
                l(1) =   0
                l(2) =   0
                l(3) =   1
                l(4) =   1
                l(5) =   2
                l(6) =   2

     PseudoPot. # 3 for O  read from file:
     /home/johnpaul/JP_QME/Dojo_Pseudo/nc-sr-05_pbe_stringent_upf/O.upf
     MD5 check sum: 9db02a5ece9d56b81b65a73f8163743d
     Pseudo is Norm-conserving + core correction, Zval =  6.0
     Generated using ONCVPSP code by D. R. Hamann
     Using radial grid of  936 points,  5 beta functions with:
                l(1) =   0
                l(2) =   0
                l(3) =   1
                l(4) =   1
                l(5) =   2

     PseudoPot. # 4 for H  read from file:
     /home/johnpaul/JP_QME/Dojo_Pseudo/nc-sr-05_pbe_stringent_upf/H.upf
     MD5 check sum: e96aa7e3e4a958db16958554ea960e2a
     Pseudo is Norm-conserving, Zval =  1.0
     Generated using ONCVPSP code by D. R. Hamann
     Using radial grid of 1166 points,  3 beta functions with:
                l(1) =   0
                l(2) =   0
                l(3) =   1

     atomic species   valence    mass     pseudopotential
        K1+            9.00    39.09830     K ( 1.00)
        P5+            5.00    30.97376     P ( 1.00)
        O2-            6.00    15.99940     O ( 1.00)
        H1+            1.00     1.00794     H ( 1.00)

      2 Sym. Ops. (no inversion) found

   Cartesian axes

     site n.     atom                  positions (alat units)
         1           K1+ tau(   1) = (   0.0000000   0.0000000   0.3354986  )
         2           K1+ tau(   2) = (   0.2500000   0.2478632   0.1716809  )
         3           K1+ tau(   3) = (   0.0000000   0.4957265   0.0078632  )
         4           K1+ tau(   4) = (   0.5000000   0.0000000   0.0078632  )
         5           K1+ tau(   5) = (   0.5000000   0.4957265   0.3354986  )
         6           K1+ tau(   6) = (   0.2500000   0.7435897   0.4993162  )
         7           K1+ tau(   7) = (   0.7500000   0.2478632   0.4993162  )
         8           K1+ tau(   8) = (   0.7500000   0.7435897   0.1716809  )
         9           P5+ tau(   9) = (   0.0000000   0.0000000   0.0000000  )
        10           P5+ tau(  10) = (   0.2500000   0.2478632   0.4914530  )
        11           P5+ tau(  11) = (   0.0000000   0.4957265   0.3276353  )
        12           P5+ tau(  12) = (   0.5000000   0.0000000   0.3276353  )
        13           P5+ tau(  13) = (   0.5000000   0.4957265   0.0000000  )
        14           P5+ tau(  14) = (   0.2500000   0.7435897   0.1638177  )
        15           P5+ tau(  15) = (   0.7500000   0.2478632   0.1638177  )
        16           P5+ tau(  16) = (   0.7500000   0.7435897   0.4914530  )
        17           O2- tau(  17) = (   0.1160000   0.0342051   0.0858405  )
        18           O2- tau(  18) = (   0.8840000   0.9572479   0.0858405  )
        19           O2- tau(  19) = (   0.1340000   0.2820684   0.5772934  )
        20           O2- tau(  20) = (   0.3660000   0.2136581   0.5772934  )
        21           O2- tau(  21) = (   0.1160000   0.5299316   0.4134758  )
        22           O2- tau(  22) = (   0.6160000   0.0342051   0.4134758  )
        23           O2- tau(  23) = (   0.6160000   0.5299316   0.0858405  )
        24           O2- tau(  24) = (   0.8840000   0.4615214   0.4134758  )
        25           O2- tau(  25) = (   0.3840000   0.9572479   0.4134758  )
        26           O2- tau(  26) = (   0.3840000   0.4615214   0.0858405  )
        27           O2- tau(  27) = (   0.1340000   0.7777949   0.2496581  )
        28           O2- tau(  28) = (   0.6340000   0.2820684   0.2496581  )
        29           O2- tau(  29) = (   0.6340000   0.7777949   0.5772934  )
        30           O2- tau(  30) = (   0.3660000   0.7093846   0.2496581  )
        31           O2- tau(  31) = (   0.8660000   0.2136581   0.2496581  )
        32           O2- tau(  32) = (   0.8660000   0.7093846   0.5772934  )
        33           O2- tau(  33) = (   0.9655000   0.1150085   0.5743447  )
        34           O2- tau(  34) = (   0.0345000   0.8764444   0.5743447  )
        35           O2- tau(  35) = (   0.2845000   0.3628718   0.4105271  )
        36           O2- tau(  36) = (   0.2155000   0.1328547   0.4105271  )
        37           O2- tau(  37) = (   0.9655000   0.6107350   0.2467094  )
        38           O2- tau(  38) = (   0.4655000   0.1150085   0.2467094  )
        39           O2- tau(  39) = (   0.4655000   0.6107350   0.5743447  )
        40           O2- tau(  40) = (   0.0345000   0.3807179   0.2467094  )
        41           O2- tau(  41) = (   0.5345000   0.8764444   0.2467094  )
        42           O2- tau(  42) = (   0.5345000   0.3807179   0.5743447  )
        43           O2- tau(  43) = (   0.2845000   0.8585983   0.0828917  )
        44           O2- tau(  44) = (   0.7845000   0.3628718   0.0828917  )
        45           O2- tau(  45) = (   0.7845000   0.8585983   0.4105271  )
        46           O2- tau(  46) = (   0.2155000   0.6285812   0.0828917  )
        47           O2- tau(  47) = (   0.7155000   0.1328547   0.0828917  )
        48           O2- tau(  48) = (   0.7155000   0.6285812   0.4105271  )
        49           H1+ tau(  49) = (   0.1880000   0.9542735   0.0874786  )
        50           H1+ tau(  50) = (   0.8120000   0.0371795   0.0874786  )
        51           H1+ tau(  51) = (   0.0620000   0.2106838   0.5789316  )
        52           H1+ tau(  52) = (   0.4380000   0.2850427   0.5789316  )
        53           H1+ tau(  53) = (   0.1880000   0.4585470   0.4151140  )
        54           H1+ tau(  54) = (   0.6880000   0.9542735   0.4151140  )
        55           H1+ tau(  55) = (   0.6880000   0.4585470   0.0874786  )
        56           H1+ tau(  56) = (   0.8120000   0.5329060   0.4151140  )
        57           H1+ tau(  57) = (   0.3120000   0.0371795   0.4151140  )
        58           H1+ tau(  58) = (   0.3120000   0.5329060   0.0874786  )
        59           H1+ tau(  59) = (   0.0620000   0.7064103   0.2512963  )
        60           H1+ tau(  60) = (   0.5620000   0.2106838   0.2512963  )
        61           H1+ tau(  61) = (   0.5620000   0.7064103   0.5789316  )
        62           H1+ tau(  62) = (   0.4380000   0.7807692   0.2512963  )
        63           H1+ tau(  63) = (   0.9380000   0.2850427   0.2512963  )
        64           H1+ tau(  64) = (   0.9380000   0.7807692   0.5789316  )

     number of k points=     1
                       cart. coord. in units 2pi/alat
        k(    1) = (   0.0000000   0.0000000   0.0000000), wk =   2.0000000

     Check: negative core charge=   -0.000073

     Initial potential from superposition of free atoms

     starting charge  319.84471, renormalised to  320.00000
     Starting wfcs are  216 randomized atomic wfcs

     Self-consistent Calculation

     iteration #  1     ecut=    25.00 Ry     beta= 0.70
     Davidson diagonalization with overlap
     ethr =  1.00E-02,  avg # of iterations =  2.0

     total energy              =   -1637.73874247 Ry
     estimated scf accuracy    <       3.71106907 Ry

[...]

     total energy              =   -1638.06182764 Ry
     estimated scf accuracy    <          6.0E-09 Ry

     iteration # 12     ecut=    25.00 Ry     beta= 0.70
     Davidson diagonalization with overlap
     ethr =  1.89E-12,  avg # of iterations =  3.0

     End of self-consistent calculation

          k = 0.0000 0.0000 0.0000 (  5411 PWs)   bands (ev):

   -23.3054 -23.2877 -23.2877 -23.2787 -23.2787 -23.2779 -23.2274 -23.2274
   -19.9373 -19.7153 -19.7153 -19.7143 -19.7143 -19.6868 -19.6868 -19.3966
   -18.4904 -18.4307 -18.4307 -18.4206 -18.4206 -18.3886 -18.3886 -18.3635
   -17.6699 -17.4471 -17.4471 -17.3869 -17.3869 -17.3848 -17.3848 -17.1987
   -16.9575 -16.9084 -16.9084 -16.8774 -16.8774 -16.8709 -16.8709 -16.8489
    -8.0221  -8.0221  -8.0189  -8.0189  -8.0175  -8.0123  -8.0123  -8.0099
    -7.9766  -7.9766  -7.9698  -7.9568  -7.9568  -7.9229  -7.9201  -7.9201
    -7.9126  -7.9126  -7.9088  -7.9072  -7.9072  -7.8944  -7.8944  -7.8727
    -6.6017  -6.1342  -6.1342  -6.0925  -6.0925  -6.0548  -6.0548  -5.6278
    -4.4954  -4.4803  -4.4803  -4.3582  -4.3582  -4.1730  -4.1730  -4.0230
    -3.8730  -2.8823  -2.8823  -2.7387  -2.7387  -2.6835  -2.6835  -2.3107
    -1.9314  -1.9314  -1.8276  -1.8276  -1.8038  -1.8038  -1.7048  -1.6929
    -1.3598  -1.0266  -1.0266  -0.8767  -0.8767  -0.8111  -0.7688  -0.7688
    -0.5226  -0.5226  -0.4924  -0.4924  -0.3318  -0.2784  -0.2784  -0.0892
     0.2754   0.3881   0.3881   0.6142   0.6142   0.6228   0.6228   0.9172
     0.9172   1.0574   1.1177   1.1541   1.1541   1.1714   1.2294   1.4613
     1.4613   1.4846   1.4846   1.5182   1.5182   1.5197   1.5511   1.5511
     2.2002   2.2076   2.2076   2.3419   2.3419   2.4279   2.4804   2.4804
     2.4861   2.4861   2.4919   2.4935   2.4935   2.5520   2.6238   2.6238
     2.8426   2.8426   2.8590   2.9491   2.9492   3.0442   3.0442   3.0497

     highest occupied level (ev):     3.0497

!    total energy              =   -1638.06182764 Ry
     estimated scf accuracy    <          9.2E-11 Ry

     The total energy is the sum of the following terms:
     one-electron contribution =    -672.06321097 Ry
     hartree contribution      =     481.88711677 Ry
     xc contribution           =    -410.89936044 Ry
     ewald contribution        =   -1036.98637300 Ry

     convergence has been achieved in  12 iterations

     Writing output data file ./outdir/KDP.save/

     General routines

     Parallel routines

   This run was terminated on:  22:58:39  25Aug2023

   JOB DONE.