     Program PWSCF v.6.7MaX starts on 25Aug2023 at 21:28:20

     Waiting for input...
     Reading input from standard input
Warning: card &CELL ignored
Warning: card / ignored

     Current dimensions of program PWSCF are:
     Max number of different atomic species (ntypx) = 10
     Max number of k-points (npk) =  40000
     Max angular momentum in pseudopotentials (lmaxx) =  3
     Message from routine read_pp_mesh:
     mesh size missing, using the one in header
     Message from routine read_pp_mesh:
     mesh size missing, using the one in header
     Message from routine read_pp_mesh:
     mesh size missing, using the one in header
     Message from routine read_pp_mesh:
     mesh size missing, using the one in header

     Subspace diagonalization in iterative solution of the eigenvalue problem:
     a serial algorithm will be used

     Found symmetry operation: I + (  0.0000 -0.5000  0.5000)
     This is a supercell, fractional translations are disabled

     bravais-lattice index     =            8
     lattice parameter (alat)  =      19.8988  a.u.
     unit-cell volume          =    5118.8754 (a.u.)^3
     number of atoms/cell      =           64
     number of atomic types    =            4
     number of electrons       =       320.00
     number of Kohn-Sham states=          192
     kinetic-energy cutoff     =      25.0000  Ry
     charge density cutoff     =     225.0000  Ry
     scf convergence threshold =      1.0E-06
     mixing beta               =       0.7000
     number of iterations used =            8  plain     mixing
     energy convergence thresh.=      1.0E-05
     force convergence thresh. =      1.0E-04
     Exchange-correlation= PBE
                           (   1   4   3   4   0   0   0)
     nstep                     =           50

     celldm(1)=  19.898816  celldm(2)=   0.991453  celldm(3)=   0.655271
     celldm(4)=   0.000000  celldm(5)=   0.000000  celldm(6)=   0.000000

     crystal axes: (cart. coord. in units of alat)
               a(1) = (   1.000000   0.000000   0.000000 )
               a(2) = (   0.000000   0.991453   0.000000 )
               a(3) = (   0.000000   0.000000   0.655271 )

     reciprocal axes: (cart. coord. in units 2 pi/alat)
               b(1) = (  1.000000  0.000000  0.000000 )
               b(2) = (  0.000000  1.008621  0.000000 )
               b(3) = (  0.000000  0.000000  1.526087 )

     PseudoPot. # 1 for K  read from file:
     /home/johnpaul/JP_QME/Dojo_Pseudo/nc-sr-05_pbe_stringent_upf/K.upf
     MD5 check sum: 0aa97b2c023445f040759afc9fdb6c80
     Pseudo is Norm-conserving + core correction, Zval =  9.0
     Generated using ONCVPSP code by D. R. Hamann
     Using radial grid of 2222 points,  6 beta functions with:
                l(1) =   0
                l(2) =   0
                l(3) =   1
                l(4) =   1
                l(5) =   2
                l(6) =   2

     PseudoPot. # 2 for P  read from file:
     /home/johnpaul/JP_QME/Dojo_Pseudo/nc-sr-05_pbe_stringent_upf/P.upf
     MD5 check sum: e25a93595ed76be8dfbf715c9c2e8dc8
     Pseudo is Norm-conserving + core correction, Zval =  5.0
     Generated using ONCVPSP code by D. R. Hamann
     Using radial grid of 1298 points,  6 beta functions with:
                l(1) =   0
                l(2) =   0
                l(3) =   1
                l(4) =   1
                l(5) =   2
                l(6) =   2

     PseudoPot. # 3 for O  read from file:
     /home/johnpaul/JP_QME/Dojo_Pseudo/nc-sr-05_pbe_stringent_upf/O.upf
     MD5 check sum: 9db02a5ece9d56b81b65a73f8163743d
     Pseudo is Norm-conserving + core correction, Zval =  6.0
     Generated using ONCVPSP code by D. R. Hamann
     Using radial grid of  936 points,  5 beta functions with:
                l(1) =   0
                l(2) =   0
                l(3) =   1
                l(4) =   1
                l(5) =   2

     PseudoPot. # 4 for H  read from file:
     /home/johnpaul/JP_QME/Dojo_Pseudo/nc-sr-05_pbe_stringent_upf/H.upf
     MD5 check sum: e96aa7e3e4a958db16958554ea960e2a
     Pseudo is Norm-conserving, Zval =  1.0
     Generated using ONCVPSP code by D. R. Hamann
     Using radial grid of 1166 points,  3 beta functions with:
                l(1) =   0
                l(2) =   0
                l(3) =   1

     atomic species   valence    mass     pseudopotential
        K1+            9.00    39.09830     K ( 1.00)
        P5+            5.00    30.97376     P ( 1.00)
        O2-            6.00    15.99940     O ( 1.00)
        H1+            1.00     1.00794     H ( 1.00)

      2 Sym. Ops. (no inversion) found

   Cartesian axes

     site n.     atom                  positions (alat units)
         1           K1+ tau(   1) = (   0.0000000   0.0000000   0.3354986  )
         2           K1+ tau(   2) = (   0.2500000   0.2478632   0.1716809  )
         3           K1+ tau(   3) = (   0.0000000   0.4957265   0.0078632  )
         4           K1+ tau(   4) = (   0.5000000   0.0000000   0.0078632  )
         5           K1+ tau(   5) = (   0.5000000   0.4957265   0.3354986  )
         6           K1+ tau(   6) = (   0.2500000   0.7435897   0.4993162  )
         7           K1+ tau(   7) = (   0.7500000   0.2478632   0.4993162  )
         8           K1+ tau(   8) = (   0.7500000   0.7435897   0.1716809  )
         9           P5+ tau(   9) = (   0.0000000   0.0000000   0.0000000  )
        10           P5+ tau(  10) = (   0.2500000   0.2478632   0.4914530  )
        11           P5+ tau(  11) = (   0.0000000   0.4957265   0.3276353  )
        12           P5+ tau(  12) = (   0.5000000   0.0000000   0.3276353  )
        13           P5+ tau(  13) = (   0.5000000   0.4957265   0.0000000  )
        14           P5+ tau(  14) = (   0.2500000   0.7435897   0.1638177  )
        15           P5+ tau(  15) = (   0.7500000   0.2478632   0.1638177  )
        16           P5+ tau(  16) = (   0.7500000   0.7435897   0.4914530  )
        17           O2- tau(  17) = (   0.1160000   0.0342051   0.0858405  )
        18           O2- tau(  18) = (   0.8840000   0.9572479   0.0858405  )
        19           O2- tau(  19) = (   0.1340000   0.2820684   0.5772934  )
        20           O2- tau(  20) = (   0.3660000   0.2136581   0.5772934  )
        21           O2- tau(  21) = (   0.1160000   0.5299316   0.4134758  )
        22           O2- tau(  22) = (   0.6160000   0.0342051   0.4134758  )
        23           O2- tau(  23) = (   0.6160000   0.5299316   0.0858405  )
        24           O2- tau(  24) = (   0.8840000   0.4615214   0.4134758  )
        25           O2- tau(  25) = (   0.3840000   0.9572479   0.4134758  )
        26           O2- tau(  26) = (   0.3840000   0.4615214   0.0858405  )
        27           O2- tau(  27) = (   0.1340000   0.7777949   0.2496581  )
        28           O2- tau(  28) = (   0.6340000   0.2820684   0.2496581  )
        29           O2- tau(  29) = (   0.6340000   0.7777949   0.5772934  )
        30           O2- tau(  30) = (   0.3660000   0.7093846   0.2496581  )
        31           O2- tau(  31) = (   0.8660000   0.2136581   0.2496581  )
        32           O2- tau(  32) = (   0.8660000   0.7093846   0.5772934  )
        33           O2- tau(  33) = (   0.9655000   0.1150085   0.5743447  )
        34           O2- tau(  34) = (   0.0345000   0.8764444   0.5743447  )
        35           O2- tau(  35) = (   0.2845000   0.3628718   0.4105271  )
        36           O2- tau(  36) = (   0.2155000   0.1328547   0.4105271  )
        37           O2- tau(  37) = (   0.9655000   0.6107350   0.2467094  )
        38           O2- tau(  38) = (   0.4655000   0.1150085   0.2467094  )
        39           O2- tau(  39) = (   0.4655000   0.6107350   0.5743447  )
        40           O2- tau(  40) = (   0.0345000   0.3807179   0.2467094  )
        41           O2- tau(  41) = (   0.5345000   0.8764444   0.2467094  )
        42           O2- tau(  42) = (   0.5345000   0.3807179   0.5743447  )
        43           O2- tau(  43) = (   0.2845000   0.8585983   0.0828917  )
        44           O2- tau(  44) = (   0.7845000   0.3628718   0.0828917  )
        45           O2- tau(  45) = (   0.7845000   0.8585983   0.4105271  )
        46           O2- tau(  46) = (   0.2155000   0.6285812   0.0828917  )
        47           O2- tau(  47) = (   0.7155000   0.1328547   0.0828917  )
        48           O2- tau(  48) = (   0.7155000   0.6285812   0.4105271  )
        49           H1+ tau(  49) = (   0.1880000   0.9542735   0.0874786  )
        50           H1+ tau(  50) = (   0.8120000   0.0371795   0.0874786  )
        51           H1+ tau(  51) = (   0.0620000   0.2106838   0.5789316  )
        52           H1+ tau(  52) = (   0.4380000   0.2850427   0.5789316  )
        53           H1+ tau(  53) = (   0.1880000   0.4585470   0.4151140  )
        54           H1+ tau(  54) = (   0.6880000   0.9542735   0.4151140  )
        55           H1+ tau(  55) = (   0.6880000   0.4585470   0.0874786  )
        56           H1+ tau(  56) = (   0.8120000   0.5329060   0.4151140  )
        57           H1+ tau(  57) = (   0.3120000   0.0371795   0.4151140  )
        58           H1+ tau(  58) = (   0.3120000   0.5329060   0.0874786  )
        59           H1+ tau(  59) = (   0.0620000   0.7064103   0.2512963  )
        60           H1+ tau(  60) = (   0.5620000   0.2106838   0.2512963  )
        61           H1+ tau(  61) = (   0.5620000   0.7064103   0.5789316  )
        62           H1+ tau(  62) = (   0.4380000   0.7807692   0.2512963  )
        63           H1+ tau(  63) = (   0.9380000   0.2850427   0.2512963  )
        64           H1+ tau(  64) = (   0.9380000   0.7807692   0.5789316  )

     number of k points=     2  Gaussian smearing, width (Ry)=  0.0100
                       cart. coord. in units 2pi/alat
        k(    1) = (   0.0000000   0.0000000   0.0000000), wk =   1.0000000
        k(    2) = (   0.0000000   0.0000000  -0.7630435), wk =   1.0000000

     Check: negative core charge=   -0.000073

     Initial potential from superposition of free atoms

     starting charge  319.84471, renormalised to  320.00000
     Starting wfcs are  216 randomized atomic wfcs

     Self-consistent Calculation

     iteration #  1     ecut=    25.00 Ry     beta= 0.70
     Davidson diagonalization with overlap
     ethr =  1.00E-02,  avg # of iterations =  5.0

     total energy              =   -1637.72986131 Ry
     estimated scf accuracy    <       3.72411012 Ry

[...]

     End of self-consistent calculation

          k = 0.0000 0.0000 0.0000 ( 10821 PWs)   bands (ev):

   -23.2980 -23.2804 -23.2804 -23.2714 -23.2714 -23.2707 -23.2201 -23.2201
   -19.9510 -19.7292 -19.7291 -19.7281 -19.7281 -19.7007 -19.7006 -19.4105
   -18.5050 -18.4453 -18.4452 -18.4352 -18.4351 -18.4032 -18.4031 -18.3782
   -17.6848 -17.4620 -17.4620 -17.4019 -17.4019 -17.3997 -17.3997 -17.2136
   -16.9731 -16.9240 -16.9240 -16.8931 -16.8930 -16.8866 -16.8865 -16.8647
    -8.0151  -8.0151  -8.0122  -8.0122  -8.0104  -8.0056  -8.0056  -8.0030
    -7.9697  -7.9697  -7.9628  -7.9497  -7.9497  -7.9156  -7.9130  -7.9130
    -7.9054  -7.9054  -7.9018  -7.9000  -7.9000  -7.8871  -7.8871  -7.8656
[...]
P5+           2.6325083746        2.6099993077        5.2123956813
P5+           0.0000000000        5.2200000000        3.4874004488
P5+           5.2650000000        0.0000000000        3.4873886734
P5+           5.2650000000        5.2200000000        0.0373940596
P5+           2.6324859534        7.8300013557        1.7624002832
P5+           7.8975140466        2.6099986443        1.7624002832
P5+           7.8974916254        7.8300006923        5.2123956813
O2-           1.2642209547        0.3794324085        0.9208901740
O2-           9.2657790453       10.0605675915        0.9208901740
O2-           1.3682756239        2.9894356015        6.0958931149
O2-           3.8967195983        2.2305648844        6.0958918376
O2-           1.2642213387        5.5994317184        4.3708934714
O2-           6.5292237893        0.3794351127        4.3708938735
O2-           6.5292218894        5.5994334033        0.9208967436
O2-           9.2657786613        4.8405682816        4.3708934714
O2-           4.0007762107       10.0605648873        4.3708938735
O2-           4.0007781106        4.8405665967        0.9208967436
O2-           1.3682830901        8.2094354447        2.6458882741
O2-           6.6332764070        2.9894341231        2.6458947714
O2-           6.6332804017        8.2094351156        6.0958918376
O2-           3.8967235930        7.4505658769        2.6458947714
O2-           9.1617169099        2.2305645553        2.6458882741
O2-           9.1617243761        7.4505643985        6.0958931149
O2-          10.1520686663        1.2674792188        6.0570602433
O2-           0.3779313337        9.1725207812        6.0570602433
O2-           3.0104336893        3.8774724711        4.3320606569
O2-           2.2545668399        1.3425217036        4.3320626446
O2-          10.1520670494        6.4874748993        2.6070613974
O2-           4.8870694825        1.2674744108        2.6070635469
O2-           4.8870685851        6.4874734750        6.0570633470
O2-           0.3779329506        3.9525251007        2.6070613974
O2-           5.6429305175        9.1725255892        2.6070635469
O2-           5.6429314149        3.9525265250        6.0570633470
O2-           3.0104361208        9.0974781078        0.8820592796
O2-           8.2754311398        3.8774741283        0.8820609032
O2-           8.2754331601        9.0974782964        4.3320626446
O2-           2.2545688602        6.5625258717        0.8820609032
O2-           7.5195638792        1.3425218922        0.8820592796
O2-           7.5195663107        6.5625275289        4.3320606569
H1+           2.0737423353        9.8951572084        0.8987741153
H1+           8.4562576647        0.5448427916        0.8987741153
H1+           0.5587572735        2.0651576610        6.0737735784
H1+           4.7062412080        3.1548432473        6.0737737072
H1+           2.0737468590        4.6751562362        4.3487721038
H1+           7.3387437933        9.8951558281        4.3487748192
H1+           7.3387449290        4.6751554762        0.8987732101
H1+           8.4562531410        5.7648437638        4.3487721038
H1+           3.1912562067        0.5448441719        4.3487748192
H1+           3.1912550710        5.7648445238        0.8987732101
H1+           0.5587594241        7.2851569697        2.6237729275
H1+           5.8237550962        2.0651564322        2.6237748887
H1+           5.8237587920        7.2851567527        6.0737737072
H1+           4.7062449038        8.3748435678        2.6237748887
H1+           9.9712405759        3.1548430303        2.6237729275
H1+           9.9712427265        8.3748423390        6.0737735784

     Writing output data file ./outdir/KDP.save/
     NEW-OLD atomic charge density approx. for the potential

     Check: negative core charge=   -0.000072

     Self-consistent Calculation

[...]

     Threshold (ethr) on eigenvalues was too large:
     Diagonalizing with lowered threshold

     Davidson diagonalization with overlap
     ethr =  3.02E-10,  avg # of iterations =  5.0

     total energy              =   -1638.32896400 Ry
     estimated scf accuracy    <       0.00000006 Ry

     iteration #  2     ecut=    25.00 Ry     beta= 0.70
     Davidson diagonalization with overlap
     ethr =  1.85E-11,  avg # of iterations =  2.0

     End of self-consistent calculation

[...]

          k = 0.0000 0.0000-0.7630 ( 10796 PWs)   bands (ev):

   -23.1850 -23.1850 -23.1628 -23.1628 -23.1602 -23.1601 -23.1601 -23.1601
   -19.3758 -19.3758 -19.1681 -19.1681 -19.1681 -19.1681 -18.8637 -18.8637
   -17.8680 -17.8680 -17.8611 -17.8611 -17.7670 -17.7670 -17.7670 -17.7670
   -17.5049 -17.5049 -17.3620 -17.3620 -17.3620 -17.3620 -17.0404 -17.0404
   -17.0285 -17.0285 -17.0267 -17.0267 -16.9747 -16.9746 -16.9746 -16.9746
    -7.9356  -7.9356  -7.9356  -7.9356  -7.9282  -7.9282  -7.9280  -7.9280
    -7.8715  -7.8715  -7.8715  -7.8715  -7.8641  -7.8641  -7.8229  -7.8229
    -7.8229  -7.8229  -7.8191  -7.8191  -7.8091  -7.8091  -7.8075  -7.8075
    -6.1990  -6.1990  -5.7382  -5.7382  -5.7382  -5.7382  -5.4239  -5.4239
    -4.0219  -4.0219  -4.0219  -4.0219  -3.8050  -3.8049  -3.8007  -3.8007
    -3.6789  -3.6789  -2.7095  -2.7095  -2.7095  -2.7095  -1.8217  -1.8217
    -1.7960  -1.7960  -1.7941  -1.7941  -1.7724  -1.7724  -1.7724  -1.7724
    -1.2967  -1.2967  -0.7687  -0.7687  -0.7687  -0.7687  -0.7466  -0.7466
    -0.4721  -0.4721  -0.4720  -0.4720  -0.3597  -0.3597  -0.3545  -0.3545
     0.7166   0.7166   0.7354   0.7355   1.0363   1.0363   1.0363   1.0363
     1.1848   1.1848   1.1848   1.1849   1.4691   1.4692   1.5997   1.5997
     1.7112   1.7112   1.7181   1.7181   1.7638   1.7638   1.7638   1.7638
     1.9627   1.9627   2.1022   2.1022   2.1022   2.1022   2.3785   2.3785
     2.4000   2.4000   2.6281   2.6281   2.6539   2.6539   2.6539   2.6539
     2.6807   2.6807   2.6836   2.6836   2.7926   2.7926   2.7927   2.7927
     8.9293   8.9293  10.3092  10.3092  10.3092  10.3092  10.6958  10.6958
    10.6958  10.6958  10.7810  10.7810  10.7943  10.7943  10.9049  10.9049
    11.5087  11.5087  11.6704  11.6704  11.6704  11.6704  11.8065  11.8066
    11.8784  11.8784  11.8784  11.8784  12.2173  12.2173  12.2313  12.2313

     the Fermi energy is     3.6287 ev

!    total energy              =   -1638.32896401 Ry
     estimated scf accuracy    <          9.9E-09 Ry
     smearing contrib. (-TS)   =      -0.00000000 Ry
     internal energy E=F+TS    =   -1638.32896401 Ry

     The total energy is F=E-TS. E is the sum of the following terms:
     one-electron contribution =    -632.42530285 Ry
     hartree contribution      =     462.45943056 Ry
     xc contribution           =    -409.01911654 Ry
     ewald contribution        =   -1059.34397518 Ry

     convergence has been achieved in   2 iterations

     Forces acting on atoms (cartesian axes, Ry/au):

     atom    1 type  1   force =     0.00000000    0.00000000    0.00007649
     atom    2 type  1   force =    -0.00000140    0.00000732    0.00007258
     atom    3 type  1   force =     0.00000000    0.00000000    0.00007599
     atom    4 type  1   force =     0.00000000    0.00000000    0.00007770
     atom    5 type  1   force =     0.00000000    0.00000000    0.00007479
     atom    6 type  1   force =    -0.00000305   -0.00000651    0.00007281
     atom    7 type  1   force =     0.00000305    0.00000651    0.00007281
     atom    8 type  1   force =     0.00000140   -0.00000732    0.00007258
     atom    9 type  2   force =     0.00000000    0.00000000   -0.00004181
     atom   10 type  2   force =    -0.00002748    0.00000369   -0.00001092
     atom   11 type  2   force =     0.00000000    0.00000000   -0.00002130
     atom   12 type  2   force =     0.00000000    0.00000000    0.00000724
     atom   13 type  2   force =     0.00000000    0.00000000    0.00000147
     atom   14 type  2   force =     0.00004341   -0.00000381   -0.00002682
     atom   15 type  2   force =    -0.00004341    0.00000381   -0.00002682
     atom   16 type  2   force =     0.00002748   -0.00000369   -0.00001092
     atom   17 type  3   force =     0.00003807   -0.00000368   -0.00002590
     atom   18 type  3   force =    -0.00003807    0.00000368   -0.00002590
     atom   19 type  3   force =    -0.00002000   -0.00000939   -0.00004012
     atom   20 type  3   force =     0.00004428    0.00000457   -0.00002767
     atom   21 type  3   force =     0.00003815   -0.00000589   -0.00003107
     atom   22 type  3   force =     0.00002601   -0.00000906   -0.00003882
     atom   23 type  3   force =     0.00003089   -0.00000799   -0.00003705
     atom   24 type  3   force =    -0.00003815    0.00000589   -0.00003107
     atom   25 type  3   force =    -0.00002601    0.00000906   -0.00003882
     atom   26 type  3   force =    -0.00003089    0.00000799   -0.00003705
     atom   27 type  3   force =    -0.00005361   -0.00000097   -0.00001905
     atom   28 type  3   force =    -0.00002212   -0.00001150   -0.00003945
     atom   29 type  3   force =    -0.00004428   -0.00000457   -0.00002767
     atom   30 type  3   force =     0.00002212    0.00001150   -0.00003945
     atom   31 type  3   force =     0.00005361    0.00000097   -0.00001905
     atom   32 type  3   force =     0.00002000    0.00000939   -0.00004012
     atom   33 type  3   force =     0.00000462   -0.00002266   -0.00001389
     atom   34 type  3   force =    -0.00000462    0.00002266   -0.00001389
     atom   35 type  3   force =    -0.00000169   -0.00001121   -0.00002184
     atom   36 type  3   force =     0.00000639    0.00001307   -0.00001951
     atom   37 type  3   force =     0.00000902   -0.00000845   -0.00001959
     atom   38 type  3   force =    -0.00000017   -0.00000941   -0.00002592
     atom   39 type  3   force =     0.00000512   -0.00000486   -0.00002491
     atom   40 type  3   force =    -0.00000902    0.00000845   -0.00001959
     atom   41 type  3   force =     0.00000017    0.00000941   -0.00002592
     atom   42 type  3   force =    -0.00000512    0.00000486   -0.00002491
     atom   43 type  3   force =    -0.00001146   -0.00001468   -0.00001514
     atom   44 type  3   force =    -0.00000075   -0.00001443   -0.00001961
     atom   45 type  3   force =    -0.00000639   -0.00001307   -0.00001951
     atom   46 type  3   force =     0.00000075    0.00001443   -0.00001961
     atom   47 type  3   force =     0.00001146    0.00001468   -0.00001514
     atom   48 type  3   force =     0.00000169    0.00001121   -0.00002184
     atom   49 type  4   force =     0.00001220    0.00000189    0.00002233
     atom   50 type  4   force =    -0.00001220   -0.00000189    0.00002233
     atom   51 type  4   force =    -0.00000618    0.00000653    0.00002306
     atom   52 type  4   force =     0.00000997   -0.00000325    0.00002384
     atom   53 type  4   force =     0.00000536    0.00000620    0.00002366
     atom   54 type  4   force =     0.00000763    0.00000621    0.00002302
     atom   55 type  4   force =     0.00000498    0.00000697    0.00002416
     atom   56 type  4   force =    -0.00000536   -0.00000620    0.00002366
     atom   57 type  4   force =    -0.00000763   -0.00000621    0.00002302
     atom   58 type  4   force =    -0.00000498   -0.00000697    0.00002416
     atom   59 type  4   force =    -0.00001359    0.00000025    0.00002372
     atom   60 type  4   force =    -0.00000182    0.00000979    0.00002283
     atom   61 type  4   force =    -0.00000997    0.00000325    0.00002384
     atom   62 type  4   force =     0.00000182   -0.00000979    0.00002283
     atom   63 type  4   force =     0.00001359   -0.00000025    0.00002372
     atom   64 type  4   force =     0.00000618   -0.00000653    0.00002306

     Total force =     0.000337     Total SCF correction =     0.000219
     SCF correction compared to forces is large: reduce conv_thr to get better values
     Energy error            =      3.0E-07
     Gradient error          =      7.8E-05

     bfgs converged in  20 scf cycles and  19 bfgs steps
     (criteria: energy <  1.0E-05 Ry, force <  1.0E-04 Ry/Bohr)

     End of BFGS Geometry Optimization

     Final energy   =   -1638.3289640067 Ry

     File ./outdir/KDP.bfgs deleted, as requested
Begin final coordinates

ATOMIC_POSITIONS (angstrom)
K1+           0.0000000000        0.0000000000        3.4877322604
K1+           2.6324924196        2.6099873057        1.7627595400
K1+           0.0000000000        5.2200000000        0.0377427296
K1+           5.2650000000        0.0000000000        0.0377197388
K1+           5.2650000000        5.2200000000        3.4877448282
K1+           2.6324993821        7.8300135492        5.2127576601
K1+           7.8975006179        2.6099864508        5.2127576601
K1+           7.8975075804        7.8300126943        1.7627595400
P5+           0.0000000000        0.0000000000        0.0374036734
P5+           2.6325083746        2.6099993077        5.2123956813
P5+           0.0000000000        5.2200000000        3.4874004488
P5+           5.2650000000        0.0000000000        3.4873886734
P5+           5.2650000000        5.2200000000        0.0373940596
P5+           2.6324859534        7.8300013557        1.7624002832
P5+           7.8975140466        2.6099986443        1.7624002832
P5+           7.8974916254        7.8300006923        5.2123956813
O2-           1.2642209547        0.3794324085        0.9208901740
O2-           9.2657790453       10.0605675915        0.9208901740
O2-           1.3682756239        2.9894356015        6.0958931149
O2-           3.8967195983        2.2305648844        6.0958918376
O2-           1.2642213387        5.5994317184        4.3708934714
O2-           6.5292237893        0.3794351127        4.3708938735
O2-           6.5292218894        5.5994334033        0.9208967436
O2-           9.2657786613        4.8405682816        4.3708934714
O2-           4.0007762107       10.0605648873        4.3708938735
O2-           4.0007781106        4.8405665967        0.9208967436
O2-           1.3682830901        8.2094354447        2.6458882741
O2-           6.6332764070        2.9894341231        2.6458947714
O2-           6.6332804017        8.2094351156        6.0958918376
O2-           3.8967235930        7.4505658769        2.6458947714
O2-           9.1617169099        2.2305645553        2.6458882741
O2-           9.1617243761        7.4505643985        6.0958931149
O2-          10.1520686663        1.2674792188        6.0570602433
O2-           0.3779313337        9.1725207812        6.0570602433
O2-           3.0104336893        3.8774724711        4.3320606569
O2-           2.2545668399        1.3425217036        4.3320626446
O2-          10.1520670494        6.4874748993        2.6070613974
O2-           4.8870694825        1.2674744108        2.6070635469
O2-           4.8870685851        6.4874734750        6.0570633470
O2-           0.3779329506        3.9525251007        2.6070613974
O2-           5.6429305175        9.1725255892        2.6070635469
O2-           5.6429314149        3.9525265250        6.0570633470
O2-           3.0104361208        9.0974781078        0.8820592796
O2-           8.2754311398        3.8774741283        0.8820609032
O2-           8.2754331601        9.0974782964        4.3320626446
O2-           2.2545688602        6.5625258717        0.8820609032
O2-           7.5195638792        1.3425218922        0.8820592796
O2-           7.5195663107        6.5625275289        4.3320606569
H1+           2.0737423353        9.8951572084        0.8987741153
H1+           8.4562576647        0.5448427916        0.8987741153
H1+           0.5587572735        2.0651576610        6.0737735784
H1+           4.7062412080        3.1548432473        6.0737737072
H1+           2.0737468590        4.6751562362        4.3487721038
H1+           7.3387437933        9.8951558281        4.3487748192
H1+           7.3387449290        4.6751554762        0.8987732101
H1+           8.4562531410        5.7648437638        4.3487721038
H1+           3.1912562067        0.5448441719        4.3487748192
H1+           3.1912550710        5.7648445238        0.8987732101
H1+           0.5587594241        7.2851569697        2.6237729275
H1+           5.8237550962        2.0651564322        2.6237748887
H1+           5.8237587920        7.2851567527        6.0737737072
H1+           4.7062449038        8.3748435678        2.6237748887
H1+           9.9712405759        3.1548430303        2.6237729275
H1+           9.9712427265        8.3748423390        6.0737735784
End final coordinates

     Writing output data file ./outdir/KDP.save/

     General routines

     Parallel routines

   This run was terminated on:  22:28:29  25Aug2023

   JOB DONE.